!!! Generated by AiiDA !!!
Ensemble NVT
EwaldPrecision 1e-06
Forcefield UFF-SPC-TC
NumberOfCycles 5000
NumberOfEquilibrationCycles 2000
NumberOfInitializationCycles 1000
PrintEvery 1000
SimulationType MolecularDynamics
WriteBinaryRestartFileEvery 200
Box 0
   BoxLengths 24.83 24.83 24.83
   ComputeRDF yes
   ExternalTemperature 298.0
   WriteRDFEvery 1000
Component 0 MoleculeName water
   CreateNumberOfMolecules 0
   MoleculeDefinition spc
   ReinsertionProbability 1.0
   RotationProbability 0.5
   TranslationProbability 0.5
